presolving:
(round 1, fast)       0 del vars, 135 del conss, 0 add conss, 30375 chg bounds, 0 chg sides, 0 chg coeffs, 0 upgd conss, 0 impls, 225 clqs
(round 2, fast)       0 del vars, 135 del conss, 0 add conss, 60750 chg bounds, 0 chg sides, 0 chg coeffs, 0 upgd conss, 0 impls, 225 clqs
   (0.7s) running MILP presolver
   (3.0s) MILP presolver (2 rounds): 0 aggregations, 30375 fixings, 0 bound changes
(round 3, medium)     30375 del vars, 720 del conss, 360 add conss, 60750 chg bounds, 0 chg sides, 135 chg coeffs, 0 upgd conss, 0 impls, 0 clqs
   (3.4s) probing: 51/135 (37.8%) - 0 fixings, 0 aggregations, 0 implications, 0 bound changes
   (3.4s) probing aborted: 50/50 successive totally useless probings
   (3.4s) symmetry computation started: requiring (bin +, int -, cont +), (fixed: bin -, int +, cont -)
   (3.4s) no symmetry present
presolving (4 rounds: 4 fast, 2 medium, 1 exhaustive):
 30375 deleted vars, 720 deleted constraints, 360 added constraints, 60750 tightened bounds, 0 added holes, 0 changed sides, 135 changed coefficients
 0 implications, 0 cliques
presolved problem has 30510 variables (135 bin, 0 int, 0 impl, 30375 cont) and 360 constraints
    360 constraints of type <linear>
Presolving Time: 3.26

 time | node  | left  |LP iter|LP it/n|mem/heur|mdpt |vars |cons |rows |cuts |sepa|confs|strbr|  dualbound   | primalbound  |  gap   | compl. 
t 3.5s|     1 |     0 |     0 |     - | trivial|   0 |  30k| 360 |   0 |   0 |  0 |   0 |   0 | 2.476400e+04 |-2.685970e+08 |    Inf | unknown
t 3.5s|     1 |     0 |     0 |     - | trivial|   0 |  30k| 360 |   0 |   0 |  0 |   0 |   0 | 2.476400e+04 |-1.356904e+08 |    Inf | unknown
p 3.6s|     1 |     0 |   225 |     - |   locks|   0 |  30k| 360 | 360 |   0 |  0 |   0 |   0 | 2.476400e+04 |-2.949705e+06 |    Inf | unknown
i 3.7s|     1 |     0 |   225 |     - |  oneopt|   0 |  30k| 360 | 360 |   0 |  0 |   0 |   0 | 2.476400e+04 |-2.142828e+06 |    Inf | unknown
  3.7s|     1 |     0 |   576 |     - |   244M |   0 |  30k| 360 | 360 |   0 |  0 |   0 |   0 |-1.619703e+05 |-2.142828e+06 |1222.98%| unknown
r 3.8s|     1 |     0 |   576 |     - |shifting|   0 |  30k| 360 | 360 |   0 |  0 |   0 |   0 |-1.619703e+05 |-2.113489e+06 |1204.86%| unknown
  4.0s|     1 |     0 |   898 |     - |   258M |   0 |  30k| 360 | 456 |  96 |  1 |   0 |   0 |-2.487593e+05 |-2.113489e+06 | 749.61%| unknown
  4.3s|     1 |     0 |  1230 |     - |   262M |   0 |  30k| 360 | 559 | 199 |  2 |   0 |   0 |-3.197756e+05 |-2.113489e+06 | 560.93%| unknown
  4.8s|     1 |     0 |  1634 |     - |   266M |   0 |  30k| 360 | 661 | 301 |  3 |   0 |   0 |-3.735777e+05 |-2.113489e+06 | 465.74%| unknown
  5.4s|     1 |     0 |  2131 |     - |   268M |   0 |  30k| 360 | 748 | 388 |  4 |   0 |   0 |-4.209258e+05 |-2.113489e+06 | 402.10%| unknown
r 5.5s|     1 |     0 |  2131 |     - |shifting|   0 |  30k| 360 | 748 | 388 |  4 |   0 |   0 |-4.209258e+05 |-2.107424e+06 | 400.66%| unknown
  6.0s|     1 |     0 |  2598 |     - |   275M |   0 |  30k| 360 | 829 | 469 |  5 |   0 |   0 |-4.597196e+05 |-2.107424e+06 | 358.41%| unknown
  6.6s|     1 |     0 |  2947 |     - |   275M |   0 |  30k| 360 | 891 | 531 |  6 |   0 |   0 |-4.824126e+05 |-2.107424e+06 | 336.85%| unknown
  7.4s|     1 |     0 |  3435 |     - |   281M |   0 |  30k| 360 | 951 | 591 |  7 |   0 |   0 |-5.054356e+05 |-2.107424e+06 | 316.95%| unknown
  8.2s|     1 |     0 |  3871 |     - |   285M |   0 |  30k| 360 |1002 | 642 |  8 |   0 |   0 |-5.196550e+05 |-2.107424e+06 | 305.54%| unknown
 time | node  | left  |LP iter|LP it/n|mem/heur|mdpt |vars |cons |rows |cuts |sepa|confs|strbr|  dualbound   | primalbound  |  gap   | compl. 
  9.0s|     1 |     0 |  4421 |     - |   288M |   0 |  30k| 360 |1053 | 693 |  9 |   0 |   0 |-5.329931e+05 |-2.107424e+06 | 295.39%| unknown
  9.6s|     1 |     0 |  4872 |     - |   289M |   0 |  30k| 360 |1104 | 744 | 10 |   0 |   0 |-5.443665e+05 |-2.107424e+06 | 287.13%| unknown
 10.3s|     1 |     0 |  5480 |     - |   291M |   0 |  30k| 360 |1199 | 839 | 11 |   0 |   0 |-5.542777e+05 |-2.107424e+06 | 280.21%| unknown
 11.0s|     1 |     0 |  5991 |     - |   293M |   0 |  30k| 360 |1252 | 892 | 12 |   0 |   0 |-5.623557e+05 |-2.107424e+06 | 274.75%| unknown
 12.3s|     1 |     0 |  6630 |     - |   296M |   0 |  30k| 360 |1312 | 952 | 13 |   0 |   0 |-5.691659e+05 |-2.107424e+06 | 270.27%| unknown
 13.6s|     1 |     0 |  7276 |     - |   299M |   0 |  30k| 360 |1372 |1012 | 14 |   0 |   0 |-5.757141e+05 |-2.107424e+06 | 266.05%| unknown
 14.8s|     1 |     0 |  7745 |     - |   301M |   0 |  30k| 360 |1416 |1056 | 15 |   0 |   0 |-5.787104e+05 |-2.107424e+06 | 264.16%| unknown
 16.0s|     1 |     0 |  8334 |     - |   303M |   0 |  30k| 360 |1456 |1096 | 16 |   0 |   0 |-5.814538e+05 |-2.107424e+06 | 262.44%| unknown
 16.9s|     1 |     0 |  8806 |     - |   306M |   0 |  30k| 360 |1495 |1135 | 17 |   0 |   0 |-5.843300e+05 |-2.107424e+06 | 260.66%| unknown
 17.7s|     1 |     0 |  9361 |     - |   308M |   0 |  30k| 360 |1534 |1174 | 18 |   0 |   0 |-5.861568e+05 |-2.107424e+06 | 259.53%| unknown
 18.6s|     1 |     0 |  9837 |     - |   311M |   0 |  30k| 360 |1574 |1214 | 19 |   0 |   0 |-5.877783e+05 |-2.107424e+06 | 258.54%| unknown
 19.9s|     1 |     0 | 10342 |     - |   316M |   0 |  30k| 360 |1632 |1272 | 20 |   0 |   0 |-5.896751e+05 |-2.107424e+06 | 257.39%| unknown
 21.5s|     1 |     0 | 10913 |     - |   319M |   0 |  30k| 360 |1685 |1325 | 21 |   0 |   0 |-5.917295e+05 |-2.107424e+06 | 256.15%| unknown
 23.3s|     1 |     0 | 11687 |     - |   321M |   0 |  30k| 360 |1735 |1388 | 22 |   0 |   0 |-5.937701e+05 |-2.107424e+06 | 254.92%| unknown
 25.1s|     1 |     0 | 12519 |     - |   323M |   0 |  30k| 360 |1782 |1435 | 23 |   0 |   0 |-5.948537e+05 |-2.107424e+06 | 254.28%| unknown
 time | node  | left  |LP iter|LP it/n|mem/heur|mdpt |vars |cons |rows |cuts |sepa|confs|strbr|  dualbound   | primalbound  |  gap   | compl. 
 26.8s|     1 |     0 | 13082 |     - |   327M |   0 |  30k| 360 |1813 |1466 | 24 |   0 |   0 |-5.957283e+05 |-2.107424e+06 | 253.76%| unknown
 28.7s|     1 |     0 | 13550 |     - |   328M |   0 |  30k| 360 |1837 |1490 | 25 |   0 |   0 |-5.961243e+05 |-2.107424e+06 | 253.52%| unknown
 30.6s|     1 |     0 | 13935 |     - |   328M |   0 |  30k| 360 |1850 |1503 | 26 |   0 |   0 |-5.964572e+05 |-2.107424e+06 | 253.32%| unknown
 32.2s|     1 |     0 | 14670 |     - |   331M |   0 |  30k| 360 |1893 |1546 | 27 |   0 |   0 |-5.968323e+05 |-2.107424e+06 | 253.10%| unknown
r32.2s|     1 |     0 | 14670 |     - |simplero|   0 |  30k| 360 |1893 |1546 | 27 |   0 |   0 |-5.968323e+05 |-1.805108e+06 | 202.45%| unknown
r32.3s|     1 |     0 | 14670 |     - |shifting|   0 |  30k| 360 |1893 |1546 | 27 |   0 |   0 |-5.968323e+05 |-1.778930e+06 | 198.06%| unknown
 34.6s|     1 |     0 | 16809 |     - |   331M |   0 |  30k| 360 |1875 |1549 | 28 |   0 |   0 |-5.969441e+05 |-1.778930e+06 | 198.01%| unknown
r34.7s|     1 |     0 | 16809 |     - |shifting|   0 |  30k| 360 |1875 |1549 | 28 |   0 |   0 |-5.969441e+05 |-1.764440e+06 | 195.58%| unknown
 35.2s|     1 |     0 | 17177 |     - |   333M |   0 |  30k| 360 |1878 |1552 | 29 |   0 |   0 |-5.970425e+05 |-1.764440e+06 | 195.53%| unknown
r35.3s|     1 |     0 | 17177 |     - |simplero|   0 |  30k| 360 |1878 |1552 | 29 |   0 |   0 |-5.970425e+05 |-1.671667e+06 | 179.99%| unknown
r35.3s|     1 |     0 | 17177 |     - |shifting|   0 |  30k| 360 |1878 |1552 | 29 |   0 |   0 |-5.970425e+05 |-1.645488e+06 | 175.61%| unknown
 35.8s|     1 |     0 | 17459 |     - |   333M |   0 |  30k| 360 |1881 |1555 | 30 |   0 |   0 |-5.971134e+05 |-1.645488e+06 | 175.57%| unknown
 36.5s|     1 |     0 | 18043 |     - |   333M |   0 |  30k| 360 |1892 |1566 | 31 |   0 |   0 |-5.971328e+05 |-1.645488e+06 | 175.56%| unknown
 37.3s|     1 |     0 | 18617 |     - |   334M |   0 |  30k| 360 |1900 |1574 | 32 |   0 |   0 |-5.972027e+05 |-1.645488e+06 | 175.53%| unknown
 38.7s|     1 |     0 | 19572 |     - |   334M |   0 |  30k| 360 |1919 |1593 | 33 |   0 |   0 |-5.972297e+05 |-1.645488e+06 | 175.52%| unknown
 time | node  | left  |LP iter|LP it/n|mem/heur|mdpt |vars |cons |rows |cuts |sepa|confs|strbr|  dualbound   | primalbound  |  gap   | compl. 
 39.6s|     1 |     0 | 20183 |     - |   334M |   0 |  30k| 360 |1857 |1611 | 34 |   0 |   0 |-5.973606e+05 |-1.645488e+06 | 175.46%| unknown
 40.2s|     1 |     0 | 20598 |     - |   334M |   0 |  30k| 360 |1868 |1622 | 35 |   0 |   0 |-5.974676e+05 |-1.645488e+06 | 175.41%| unknown
 41.2s|     1 |     0 | 21452 |     - |   336M |   0 |  30k| 360 |1885 |1639 | 36 |   0 |   0 |-5.975994e+05 |-1.645488e+06 | 175.35%| unknown
 51.2s|     1 |     0 | 31392 |     - |   336M |   0 |  30k| 360 |1894 |1648 | 37 |   0 |   0 |-5.976822e+05 |-1.645488e+06 | 175.31%| unknown
r51.2s|     1 |     0 | 31392 |     - |simplero|   0 |  30k| 360 |1894 |1648 | 37 |   0 |   0 |-5.976822e+05 |-6.363740e+05 |   6.47%| unknown
 51.7s|     1 |     0 | 31758 |     - |   336M |   0 |  30k| 360 |1895 |1649 | 38 |   0 |   0 |-5.976975e+05 |-6.363740e+05 |   6.47%| unknown
 52.1s|     1 |     0 | 31945 |     - |   337M |   0 |  30k| 360 |1868 |1652 | 39 |   0 |   0 |-5.977195e+05 |-6.363740e+05 |   6.47%| unknown
 64.5s|     1 |     0 | 42561 |     - |   337M |   0 |  30k| 360 |1889 |1673 | 40 |   0 |   0 |-5.977571e+05 |-6.363740e+05 |   6.46%| unknown
 75.6s|     1 |     0 | 52065 |     - |   337M |   0 |  30k| 360 |1892 |1676 | 41 |   0 |   0 |-5.978853e+05 |-6.363740e+05 |   6.44%| unknown
d75.7s|     1 |     0 | 52065 |     - |farkasdi|   0 |  30k| 360 |1892 |   0 | 43 |   0 |   0 |-5.978853e+05 |-5.978853e+05 |   0.00%| unknown
 75.7s|     1 |     0 | 52065 |     - |   337M |   0 |  30k| 360 |1892 |1676 | 43 |   0 |   0 |-5.978853e+05 |-5.978853e+05 |   0.00%| unknown

SCIP Status        : problem is solved [optimal solution found]
Solving Time (sec) : 75.68
Solving Nodes      : 1
Primal Bound       : -5.97885343879796e+05 (54 solutions)
Dual Bound         : -5.97885343879796e+05
Gap                : 0.00 %
Solve Status: optimal
Solve Time: 75.71 seconds
